Set parameter TokenServer to value "hpc-licenses.hpcc.usc.edu"
Set parameter TimeLimit to value 3600
Gurobi Optimizer version 9.5.1 build v9.5.1rc2 (linux64)
Thread count: 20 physical cores, 20 logical processors, using up to 20 threads
Optimize a model with 6006 rows, 4529 columns and 23034 nonzeros
Model fingerprint: 0x07313967
Variable types: 4506 continuous, 23 integer (23 binary)
Coefficient statistics:
  Matrix range     [1e+00, 1e+00]
  Objective range  [3e-03, 1e+00]
  Bounds range     [1e+00, 1e+00]
  RHS range        [1e+00, 1e+00]
Presolve removed 1520 rows and 1515 columns
Presolve time: 0.06s
Presolved: 4486 rows, 3014 columns, 20481 nonzeros
Variable types: 2994 continuous, 20 integer (20 binary)
Found heuristic solution: objective 233.5050100

Root relaxation: objective 2.376730e+02, 2598 iterations, 0.07 seconds (0.07 work units)

    Nodes    |    Current Node    |     Objective Bounds      |     Work
 Expl Unexpl |  Obj  Depth IntInf | Incumbent    BestBd   Gap | It/Node Time

*    0     0               0     237.6730247  237.67302  0.00%     -    0s

Explored 1 nodes (2598 simplex iterations) in 0.20 seconds (0.15 work units)
Thread count was 20 (of 20 available processors)

Solution count 2: 237.673 233.505 

Optimal solution found (tolerance 1.00e-04)
Best objective 2.376730247265e+02, best bound 2.376730247265e+02, gap 0.0000%



#########node  1
V1.4
#########node  2
0.0,1.0
#########node  3
1.0,0.0


Total Solving Time 0.5518739223480225
obj value 237.67302472646728
Policy Regret train (Sum) 0.5855838979164089
Best Treatment Found train (%) 89.0
treatment classification acc train (%) 28.799999999999997
Policy Regret test (Sum) 15.20854945905153
Best Treatment Found test (%) 88.23
treatment classification acc test (%) 30.25
Set parameter TokenServer to value "hpc-licenses.hpcc.usc.edu"
Set parameter TimeLimit to value 3600
Gurobi Optimizer version 9.5.1 build v9.5.1rc2 (linux64)
Thread count: 20 physical cores, 20 logical processors, using up to 20 threads
Optimize a model with 6006 rows, 4529 columns and 23034 nonzeros
Model fingerprint: 0x07313967
Variable types: 4506 continuous, 23 integer (23 binary)
Coefficient statistics:
  Matrix range     [1e+00, 1e+00]
  Objective range  [3e-03, 1e+00]
  Bounds range     [1e+00, 1e+00]
  RHS range        [1e+00, 1e+00]
Presolve removed 1520 rows and 1515 columns
Presolve time: 0.05s
Presolved: 4486 rows, 3014 columns, 20481 nonzeros
Variable types: 2994 continuous, 20 integer (20 binary)
Found heuristic solution: objective 233.5050100

Root relaxation: objective 2.376730e+02, 2598 iterations, 0.06 seconds (0.07 work units)

    Nodes    |    Current Node    |     Objective Bounds      |     Work
 Expl Unexpl |  Obj  Depth IntInf | Incumbent    BestBd   Gap | It/Node Time

*    0     0               0     237.6730247  237.67302  0.00%     -    0s

Explored 1 nodes (2598 simplex iterations) in 0.16 seconds (0.15 work units)
Thread count was 20 (of 20 available processors)

Solution count 2: 237.673 233.505 

Optimal solution found (tolerance 1.00e-04)
Best objective 2.376730247265e+02, best bound 2.376730247265e+02, gap 0.0000%



#########node  1
V1.4
#########node  2
0.0,1.0
#########node  3
1.0,0.0


Total Solving Time 0.5189805030822754
obj value 237.67302472646728
Policy Regret train (Sum) 0.5855838979164089
Best Treatment Found train (%) 89.0
treatment classification acc train (%) 28.799999999999997
Policy Regret test (Sum) 15.20854945905153
Best Treatment Found test (%) 88.23
treatment classification acc test (%) 30.25
